WARNING: for repeatability, setting FPU to use double precision
============================[ Problem Statistics ]=============================
|                                                                             |
|  Number of variables:            50                                         |
|  Number of clauses:             218                                         |
|  Parse time:                   0.00 s                                       |
|                                                                             |
============================[ Search Statistics ]==============================
| Conflicts |          ORIGINAL         |          LEARNT          | Progress |
|           |    Vars  Clauses Literals |    Limit  Clauses Lit/Cl |          |
===============================================================================
===============================================================================
restarts              : 1
conflicts             : 53             (36628 /sec)
decisions             : 65             (0.00 % random) (44921 /sec)
propagations          : 643            (444368 /sec)
conflict literals     : 175            (16.27 % deleted)
Memory used           : 20.00 MB
CPU time              : 0.001447 s

UNSATISFIABLE
